set VV := 0 1 2 3 4 5 6 7 8 9 10 11 12 13 14 15 16 17 18 19 20 21 22 23 24 25 26 27 28 29 30 31 32 33 34 35 36 37 38 39 40 41 42 43 44 45 ;
set VS := 0 1 2 3 4 5 6 7 8 9 10 11 12 13 14 15 16 17 18 19 20 21 22 23 24 25 26 27 28 29 30 31 32 33 34 35 36 37 38 39 40 41 42 43 44 45 46 47 48 49 50 51 52 53 54 55 56 57 58 59 60 61 62 63 64 65 66 67 68 69 70 71 72 73 74 75 76 77 78 79 80 81 82 83 84 85 86 87 88 89 90 91 92 93 94 95 ;
param cv := 
0 21
1 22
2 18
3 19
4 25
5 22
6 14
7 19
8 14
9 19
10 20
11 20
12 11
13 14
14 12
15 21
16 22
17 19
18 16
19 21
20 15
21 15
22 18
23 23
24 20
25 13
26 13
27 11
28 11
29 25
30 15
31 20
32 19
33 11
34 17
35 17
36 10
37 13
38 11
39 24
40 24
41 24
42 25
43 14
44 22
45 15
;
param cs := 
0 25
1 29
2 25
3 36
4 36
5 21
6 30
7 26
8 33
9 31
10 26
11 39
12 36
13 25
14 20
15 26
16 33
17 39
18 40
19 32
20 25
21 25
22 35
23 38
24 35
25 25
26 21
27 20
28 33
29 38
30 23
31 35
32 31
33 37
34 35
35 30
36 33
37 21
38 32
39 30
40 32
41 39
42 26
43 34
44 24
45 39
46 24
47 36
48 34
49 23
50 40
51 40
52 29
53 40
54 31
55 35
56 33
57 38
58 35
59 27
60 24
61 40
62 39
63 24
64 33
65 38
66 33
67 29
68 30
69 40
70 26
71 40
72 30
73 36
74 35
75 30
76 36
77 36
78 22
79 35
80 34
81 34
82 25
83 30
84 36
85 30
86 28
87 22
88 28
89 29
90 30
91 22
92 20
93 24
94 39
95 30
;
param bv:	 0 1 2 3 4 5 6 7 8 9 10 11 12 13 14 15 16 17 18 19 20 21 22 23 24 25 26 27 28 29 30 31 32 33 34 35 36 37 38 39 40 41 42 43 44 45 := 
		0 0 0 0 12 0 0 0 0 0 0 0 0 0 0 0 0 0 0 0 0 0 0 0 0 0 0 0 16 0 0 0 21 0 0 0 0 0 0 0 0 0 0 0 0 0 0 
		1 0 0 0 0 0 16 0 0 0 0 0 16 0 14 0 0 0 0 0 0 0 0 0 0 0 0 0 0 0 0 19 0 0 0 0 0 0 0 0 23 0 0 0 0 0 0 
		2 0 0 0 0 0 0 0 0 0 0 0 0 0 0 0 10 0 0 0 0 24 13 0 0 10 0 21 0 0 0 0 0 18 0 0 0 0 0 0 0 0 0 0 0 0 0 
		3 0 0 0 0 13 0 0 0 0 0 0 0 0 0 0 17 0 0 0 0 0 0 0 0 0 0 0 0 0 0 0 13 0 0 0 15 0 0 0 0 0 0 0 0 0 0 
		4 0 0 0 0 0 0 0 0 0 0 0 12 0 0 0 0 0 0 23 11 0 12 0 0 0 0 0 18 0 0 0 0 0 0 0 0 0 0 0 0 0 0 0 0 10 0 
		5 0 0 0 0 0 0 0 0 0 14 20 0 0 0 0 0 0 10 0 0 0 0 0 0 0 0 0 0 0 0 0 0 0 0 0 0 0 0 0 0 0 0 0 0 21 0 
		6 0 0 0 0 0 0 0 0 0 10 0 0 0 0 0 13 0 0 0 0 0 0 0 0 0 0 0 0 17 0 0 15 0 10 0 0 0 25 0 0 0 0 0 0 0 0 
		7 0 0 0 0 0 0 0 0 0 0 0 0 0 11 0 0 0 21 0 0 0 0 0 0 0 0 0 25 0 0 0 0 0 0 0 0 0 0 0 19 0 0 0 0 0 0 
		8 0 0 0 0 0 0 0 0 0 0 0 0 17 22 0 0 0 0 0 0 25 0 0 0 0 0 0 16 0 0 0 0 0 0 0 0 0 0 0 0 0 0 0 0 0 0 
		9 0 0 0 0 0 0 0 0 0 0 0 0 0 0 0 0 0 0 0 0 0 0 0 0 0 11 0 25 0 0 0 0 0 0 0 0 0 0 0 0 0 0 23 0 0 20 
		10 0 0 0 0 0 0 0 0 0 0 0 20 0 0 0 0 0 0 0 13 0 0 0 0 0 0 0 21 0 20 10 16 0 0 0 11 0 0 0 0 0 0 0 0 0 0 
		11 0 0 0 0 0 0 0 0 0 0 0 0 0 22 0 0 0 0 0 23 0 0 25 10 0 0 0 0 0 0 25 0 0 0 0 21 0 0 0 0 0 0 0 0 0 0 
		12 0 0 0 0 0 0 0 0 0 0 0 0 0 0 0 0 0 0 0 0 0 0 0 0 14 0 0 0 0 0 0 0 0 0 0 23 12 22 0 0 0 10 0 0 22 0 
		13 0 0 0 0 0 0 0 0 0 0 0 0 0 0 0 0 0 0 0 0 13 12 0 0 0 17 0 24 18 0 0 0 0 0 0 12 0 23 0 0 0 0 0 14 16 0 
		14 0 0 0 0 0 0 0 0 0 0 0 0 0 0 0 0 0 0 0 0 0 0 0 0 0 0 0 0 0 0 0 0 0 0 0 0 0 0 0 0 0 0 0 0 0 16 
		15 0 0 0 0 0 0 0 0 0 0 0 0 0 0 0 0 0 0 0 0 0 0 0 0 0 0 0 0 0 0 0 14 14 0 0 0 0 0 0 0 0 0 0 0 0 0 
		16 0 0 0 0 0 0 0 0 0 0 0 0 0 0 0 0 0 0 0 0 0 0 24 0 0 0 0 0 0 20 0 0 0 0 0 0 0 0 0 0 0 0 0 0 0 0 
		17 0 0 0 0 0 0 0 0 0 0 0 0 0 0 0 0 0 0 0 0 0 12 0 0 19 0 0 0 0 0 0 0 0 0 0 19 0 0 0 0 0 16 0 0 0 0 
		18 0 0 0 0 0 0 0 0 0 0 0 0 0 0 0 0 0 0 0 0 0 14 0 0 0 0 0 0 0 0 0 0 0 0 16 0 0 0 0 0 0 0 0 14 0 0 
		19 0 0 0 0 0 0 0 0 0 0 0 0 0 0 0 0 0 0 0 0 0 0 0 0 0 0 0 23 0 0 13 12 0 0 0 16 0 0 0 0 0 0 0 0 0 0 
		20 0 0 0 0 0 0 0 0 0 0 0 0 0 0 0 0 0 0 0 0 0 0 0 0 0 0 0 0 0 0 0 0 11 12 0 0 0 0 0 0 0 0 0 0 0 0 
		21 0 0 0 0 0 0 0 0 0 0 0 0 0 0 0 0 0 0 0 0 0 0 0 0 25 17 0 0 0 0 0 0 0 0 0 0 12 0 0 0 0 0 0 0 0 0 
		22 0 0 0 0 0 0 0 0 0 0 0 0 0 0 0 0 0 0 0 0 0 0 0 22 0 0 0 0 0 0 0 0 0 0 0 0 0 22 13 12 0 0 0 0 0 0 
		23 0 0 0 0 0 0 0 0 0 0 0 0 0 0 0 0 0 0 0 0 0 0 0 0 0 18 0 0 0 0 0 0 0 0 0 0 0 0 0 17 0 0 0 0 0 0 
		24 0 0 0 0 0 0 0 0 0 0 0 0 0 0 0 0 0 0 0 0 0 0 0 0 0 0 0 0 0 0 0 0 0 0 0 0 0 0 0 0 0 0 0 0 25 0 
		25 0 0 0 0 0 0 0 0 0 0 0 0 0 0 0 0 0 0 0 0 0 0 0 0 0 0 0 0 0 22 0 0 0 0 0 0 0 0 0 0 0 0 0 0 0 25 
		26 0 0 0 0 0 0 0 0 0 0 0 0 0 0 0 0 0 0 0 0 0 0 0 0 0 0 0 0 0 0 0 0 0 13 0 0 0 0 0 0 0 0 0 0 0 0 
		27 0 0 0 0 0 0 0 0 0 0 0 0 0 0 0 0 0 0 0 0 0 0 0 0 0 0 0 0 0 0 0 0 0 24 0 0 0 0 0 0 0 0 0 0 0 0 
		28 0 0 0 0 0 0 0 0 0 0 0 0 0 0 0 0 0 0 0 0 0 0 0 0 0 0 0 0 0 0 24 0 0 0 0 23 0 21 0 0 0 0 0 0 22 0 
		29 0 0 0 0 0 0 0 0 0 0 0 0 0 0 0 0 0 0 0 0 0 0 0 0 0 0 0 0 0 0 0 0 0 15 0 0 0 0 14 0 0 0 0 0 0 0 
		30 0 0 0 0 0 0 0 0 0 0 0 0 0 0 0 0 0 0 0 0 0 0 0 0 0 0 0 0 0 0 0 21 0 0 25 0 0 0 0 0 0 0 0 0 0 0 
		31 0 0 0 0 0 0 0 0 0 0 0 0 0 0 0 0 0 0 0 0 0 0 0 0 0 0 0 0 0 0 0 0 0 0 25 0 0 0 0 0 0 0 0 0 0 0 
		32 0 0 0 0 0 0 0 0 0 0 0 0 0 0 0 0 0 0 0 0 0 0 0 0 0 0 0 0 0 0 0 0 0 0 0 0 0 0 0 0 0 0 0 0 0 20 
		33 0 0 0 0 0 0 0 0 0 0 0 0 0 0 0 0 0 0 0 0 0 0 0 0 0 0 0 0 0 0 0 0 0 0 0 0 0 15 0 0 0 16 0 0 0 0 
		34 0 0 0 0 0 0 0 0 0 0 0 0 0 0 0 0 0 0 0 0 0 0 0 0 0 0 0 0 0 0 0 0 0 0 0 0 0 0 0 0 0 0 0 0 0 0 
		35 0 0 0 0 0 0 0 0 0 0 0 0 0 0 0 0 0 0 0 0 0 0 0 0 0 0 0 0 0 0 0 0 0 0 0 0 0 0 0 0 0 16 0 0 16 0 
		36 0 0 0 0 0 0 0 0 0 0 0 0 0 0 0 0 0 0 0 0 0 0 0 0 0 0 0 0 0 0 0 0 0 0 0 0 0 0 0 0 0 14 0 0 0 0 
		37 0 0 0 0 0 0 0 0 0 0 0 0 0 0 0 0 0 0 0 0 0 0 0 0 0 0 0 0 0 0 0 0 0 0 0 0 0 0 11 0 0 0 0 0 0 0 
		38 0 0 0 0 0 0 0 0 0 0 0 0 0 0 0 0 0 0 0 0 0 0 0 0 0 0 0 0 0 0 0 0 0 0 0 0 0 0 0 0 0 0 0 0 0 0 
		39 0 0 0 0 0 0 0 0 0 0 0 0 0 0 0 0 0 0 0 0 0 0 0 0 0 0 0 0 0 0 0 0 0 0 0 0 0 0 0 0 0 0 0 0 0 0 
		40 0 0 0 0 0 0 0 0 0 0 0 0 0 0 0 0 0 0 0 0 0 0 0 0 0 0 0 0 0 0 0 0 0 0 0 0 0 0 0 0 0 0 23 0 0 0 
		41 0 0 0 0 0 0 0 0 0 0 0 0 0 0 0 0 0 0 0 0 0 0 0 0 0 0 0 0 0 0 0 0 0 0 0 0 0 0 0 0 0 0 0 0 0 23 
		42 0 0 0 0 0 0 0 0 0 0 0 0 0 0 0 0 0 0 0 0 0 0 0 0 0 0 0 0 0 0 0 0 0 0 0 0 0 0 0 0 0 0 0 0 0 0 
		43 0 0 0 0 0 0 0 0 0 0 0 0 0 0 0 0 0 0 0 0 0 0 0 0 0 0 0 0 0 0 0 0 0 0 0 0 0 0 0 0 0 0 0 0 0 0 
		44 0 0 0 0 0 0 0 0 0 0 0 0 0 0 0 0 0 0 0 0 0 0 0 0 0 0 0 0 0 0 0 0 0 0 0 0 0 0 0 0 0 0 0 0 0 0 
		45 0 0 0 0 0 0 0 0 0 0 0 0 0 0 0 0 0 0 0 0 0 0 0 0 0 0 0 0 0 0 0 0 0 0 0 0 0 0 0 0 0 0 0 0 0 0 
;
param bs:	 0 1 2 3 4 5 6 7 8 9 10 11 12 13 14 15 16 17 18 19 20 21 22 23 24 25 26 27 28 29 30 31 32 33 34 35 36 37 38 39 40 41 42 43 44 45 46 47 48 49 50 51 52 53 54 55 56 57 58 59 60 61 62 63 64 65 66 67 68 69 70 71 72 73 74 75 76 77 78 79 80 81 82 83 84 85 86 87 88 89 90 91 92 93 94 95 := 
		0 0 0 0 0 0 23 0 0 0 0 0 0 0 0 0 0 0 0 0 0 0 0 0 0 31 0 0 0 0 0 0 0 0 0 0 0 0 0 0 0 0 0 20 0 0 0 0 0 0 0 0 0 0 0 0 0 0 0 0 0 0 0 0 0 0 0 0 0 0 0 0 26 0 0 0 0 0 0 0 0 0 0 0 0 0 0 0 0 0 0 0 0 0 0 0 0 
		1 0 0 0 0 20 0 0 0 0 0 25 21 0 0 22 38 0 0 0 0 0 0 0 0 0 0 0 0 0 0 0 0 0 0 0 0 24 38 0 0 0 0 0 0 0 0 0 0 0 0 0 0 0 0 0 0 0 0 0 39 0 0 0 0 0 0 0 0 0 0 0 0 0 0 0 0 0 0 0 0 0 0 0 27 0 0 0 0 37 0 0 0 0 25 0 0 
		2 0 0 0 0 0 0 0 38 0 0 0 0 0 0 0 0 0 0 0 0 0 0 0 0 0 27 0 0 0 0 0 0 0 0 0 27 0 0 0 0 0 38 0 0 0 0 0 0 0 0 0 0 0 0 0 0 0 0 0 0 0 0 0 0 0 0 0 0 0 0 0 0 0 0 0 0 0 0 39 39 0 0 0 0 0 0 0 0 0 35 0 0 0 0 0 0 
		3 0 0 0 0 0 0 38 0 0 0 0 0 0 0 23 0 0 0 0 0 0 0 0 0 0 0 0 0 0 0 0 0 0 0 0 0 0 0 0 0 0 0 0 0 0 0 0 0 0 0 0 0 0 0 0 0 0 0 0 0 25 0 0 0 0 0 0 0 0 0 0 0 0 0 0 0 0 0 0 0 0 0 0 0 0 0 0 0 0 0 0 0 32 0 0 0 
		4 0 20 0 0 0 0 0 0 0 0 0 0 0 0 0 0 0 0 23 35 0 0 0 0 0 0 0 0 21 0 23 0 0 0 31 0 0 0 0 0 0 0 0 0 0 0 0 0 27 0 0 0 0 0 0 0 0 0 28 0 0 0 0 0 0 0 0 0 0 0 0 0 0 0 0 0 0 0 0 29 0 0 0 0 0 0 0 0 0 0 24 0 0 0 0 0 
		5 23 0 0 0 0 0 0 0 38 0 0 0 23 0 0 0 0 0 0 0 0 0 0 0 0 0 0 0 0 0 0 20 0 0 24 0 0 0 0 0 0 0 0 29 0 0 0 0 0 0 0 0 0 0 0 0 40 0 0 0 0 0 24 28 0 0 0 0 0 0 0 0 0 0 0 0 0 0 39 40 0 0 0 33 0 0 0 33 0 0 0 0 0 0 0 0 
		6 0 0 0 38 0 0 0 34 0 0 0 0 0 0 0 0 0 25 0 0 0 0 0 37 0 0 0 0 0 0 0 0 0 0 0 0 0 0 0 0 0 0 34 0 0 0 0 0 0 0 0 0 0 0 0 0 26 0 36 0 0 0 0 20 0 0 0 0 0 0 0 0 0 0 30 0 0 0 25 0 0 0 0 0 0 0 0 0 0 0 0 0 0 0 31 0 
		7 0 0 38 0 0 0 34 0 0 28 0 31 0 0 0 0 26 29 0 30 0 0 0 23 0 26 0 0 0 0 0 21 0 39 0 0 0 0 0 27 0 26 20 0 0 0 30 31 0 0 0 27 0 0 0 0 0 0 0 0 0 0 0 0 0 0 0 0 0 0 0 0 0 0 0 0 0 0 26 0 0 0 0 0 0 0 0 0 0 0 0 0 24 0 0 0 
		8 0 0 0 0 0 38 0 0 0 37 39 0 0 0 0 0 0 0 36 0 0 0 31 0 0 0 0 0 0 0 39 0 0 20 0 0 0 0 0 0 0 0 0 0 0 34 0 27 29 31 0 0 0 33 0 0 0 0 0 0 0 0 0 0 0 0 0 0 0 0 0 0 0 0 0 0 0 0 0 0 38 0 0 0 0 37 0 32 0 30 0 0 0 0 0 0 
		9 0 0 0 0 0 0 0 28 37 0 0 0 0 0 0 0 0 0 0 0 0 0 22 0 0 0 0 23 0 0 0 0 0 0 31 0 0 38 0 0 0 0 0 0 35 20 40 0 0 0 0 0 0 0 0 0 0 0 0 0 0 0 0 0 0 0 0 0 0 0 0 36 0 25 0 39 0 0 0 30 0 0 0 0 0 0 0 0 0 0 0 0 0 20 0 0 
		10 0 25 0 0 0 0 0 0 39 0 0 20 0 0 0 0 0 0 0 0 0 0 29 31 0 0 0 0 0 28 0 0 0 0 0 0 0 0 0 0 0 0 0 0 0 27 0 0 0 0 0 0 0 0 0 0 0 0 0 0 0 0 0 0 22 0 0 0 0 0 0 0 34 0 0 0 0 0 0 0 0 0 35 0 0 0 30 0 0 0 0 0 0 0 0 21 
		11 0 21 0 0 0 0 0 31 0 0 20 0 31 0 0 0 0 0 0 0 0 0 27 0 0 33 0 0 0 0 28 0 0 0 31 0 0 38 0 0 0 0 0 0 31 0 0 0 0 0 0 0 0 0 0 0 0 0 0 0 0 0 0 0 0 0 0 0 0 0 0 0 0 0 36 35 0 0 0 0 0 0 0 0 0 0 25 0 0 0 0 0 0 0 0 0 
		12 0 0 0 0 0 23 0 0 0 0 0 31 0 0 0 0 0 0 0 0 0 0 0 0 0 0 0 0 0 0 0 0 0 0 0 0 0 0 0 0 0 0 0 0 0 0 0 0 0 26 0 0 0 0 0 0 0 0 0 26 0 0 0 0 0 0 0 0 0 0 0 0 36 0 0 0 0 0 0 0 0 0 0 0 0 24 0 0 0 0 0 38 0 0 0 0 
		13 0 0 0 0 0 0 0 0 0 0 0 0 0 0 0 23 0 0 0 0 0 0 0 0 0 34 0 22 0 30 0 0 0 0 0 32 0 0 0 0 0 36 0 0 0 0 0 24 0 0 34 25 0 0 0 0 0 0 0 0 35 0 28 0 0 40 0 0 0 0 0 0 0 0 0 29 0 0 0 0 25 40 0 0 0 0 0 0 0 38 0 0 0 0 40 32 
		14 0 22 0 23 0 0 0 0 0 0 0 0 0 0 0 0 0 35 0 0 24 0 0 0 0 0 0 0 0 0 0 0 0 0 0 0 0 25 0 0 0 0 0 0 0 0 0 0 0 0 0 0 0 0 0 24 0 0 0 0 0 0 0 0 0 0 0 0 0 0 0 0 0 0 0 0 0 0 0 0 0 30 0 0 0 0 0 0 0 0 0 0 0 0 0 0 
		15 0 38 0 0 0 0 0 0 0 0 0 0 0 23 0 0 0 0 0 0 0 0 0 0 0 0 0 0 0 0 0 0 0 0 0 0 0 0 0 0 0 0 0 0 0 0 0 0 0 0 27 0 0 0 0 0 0 0 0 0 26 0 0 0 0 0 0 0 0 0 0 0 0 0 30 0 0 0 0 0 0 0 0 0 0 0 0 0 0 0 0 0 31 0 0 0 
		16 0 0 0 0 0 0 0 26 0 0 0 0 0 0 0 0 0 0 0 0 0 0 0 0 0 0 0 0 0 0 0 0 0 22 0 0 39 0 0 0 0 28 0 0 0 30 0 0 0 0 0 0 0 0 0 0 36 0 35 0 0 0 36 0 0 0 20 0 0 0 36 0 0 0 0 0 0 0 37 0 0 0 0 0 0 0 0 0 0 0 0 0 0 0 0 0 
		17 0 0 0 0 0 0 25 29 0 0 0 0 0 0 35 0 0 0 0 0 0 0 0 0 0 21 0 0 0 0 0 0 0 0 0 0 0 0 0 0 0 34 0 0 0 0 0 26 0 0 0 0 0 0 0 0 0 0 0 0 0 0 0 0 0 0 0 24 0 0 0 0 0 0 0 0 0 0 30 0 0 0 0 36 0 0 0 26 0 0 0 0 0 0 25 0 
		18 0 0 0 0 23 0 0 0 36 0 0 0 0 0 0 0 0 0 0 0 0 0 0 0 0 0 0 0 22 27 0 0 0 0 0 0 21 0 0 0 0 0 0 0 0 0 0 0 0 0 0 0 0 0 0 0 0 0 0 0 0 0 0 0 0 21 0 0 0 0 0 0 0 0 0 33 0 0 0 0 0 0 0 0 0 0 0 0 0 0 0 0 0 0 0 0 
		19 0 0 0 0 35 0 0 30 0 0 0 0 0 0 0 0 0 0 0 0 0 38 0 0 0 0 0 0 0 0 0 25 0 0 0 37 25 0 0 0 0 0 0 0 0 0 0 0 0 0 0 0 28 0 0 0 0 0 38 0 0 0 0 0 0 0 0 0 0 0 0 0 0 0 0 0 0 0 0 0 0 0 0 0 0 0 0 0 0 0 0 0 0 0 0 0 
		20 0 0 0 0 0 0 0 0 0 0 0 0 0 0 24 0 0 0 0 0 0 20 0 0 0 0 0 0 0 0 0 35 0 0 0 39 0 0 0 0 34 0 0 0 0 0 0 0 0 0 0 0 0 0 37 0 0 0 0 0 0 0 0 0 0 0 0 25 0 0 0 0 0 0 0 0 0 0 0 0 0 0 0 0 0 0 0 0 0 0 0 0 0 0 0 0 
		21 0 0 0 0 0 0 0 0 0 0 0 0 0 0 0 0 0 0 0 38 20 0 0 0 0 0 0 0 0 0 0 0 0 0 0 35 0 0 38 0 0 0 0 0 0 0 0 0 0 0 0 39 0 0 0 0 26 0 0 0 0 0 0 0 0 0 0 0 0 0 0 0 0 0 0 0 0 0 0 0 0 0 0 0 0 0 0 0 0 0 0 0 0 0 0 0 
		22 0 0 0 0 0 0 0 0 31 22 29 27 0 0 0 0 0 0 0 0 0 0 0 0 0 0 0 30 0 0 0 0 0 0 0 0 37 0 0 0 0 0 0 0 0 0 0 0 31 0 36 0 0 0 0 0 0 0 0 28 0 0 0 0 0 0 0 0 0 0 0 0 0 29 0 0 0 20 0 0 35 0 0 0 0 0 0 0 0 0 0 0 0 0 0 0 
		23 0 0 0 0 0 0 37 23 0 0 31 0 0 0 0 0 0 0 0 0 0 0 0 0 0 0 0 0 0 0 29 0 0 0 0 24 0 0 0 0 20 0 30 0 0 0 0 0 27 0 0 0 0 33 0 0 0 0 0 31 0 0 0 20 0 0 0 0 0 0 0 0 29 0 0 0 0 0 0 0 0 0 0 0 0 0 34 0 0 0 0 0 0 0 0 0 
		24 31 0 0 0 0 0 0 0 0 0 0 0 0 0 0 0 0 0 0 0 0 0 0 0 0 39 0 21 0 35 0 0 0 0 0 0 0 0 0 0 29 0 0 0 0 0 0 0 0 0 0 0 0 0 0 0 0 0 0 0 0 0 0 0 0 39 0 0 0 0 0 28 0 0 0 0 0 0 0 0 0 0 0 0 33 0 0 0 0 0 0 0 0 0 0 0 
		25 0 0 27 0 0 0 0 26 0 0 0 33 0 34 0 0 0 21 0 0 0 0 0 0 39 0 38 40 32 0 0 0 0 21 0 0 0 0 0 0 0 0 0 0 0 0 0 26 0 0 0 0 0 0 0 0 31 0 0 0 0 0 0 0 0 0 0 35 0 0 0 0 0 0 0 0 0 0 0 0 0 0 0 0 0 0 0 0 0 0 0 0 0 0 34 0 
		26 0 0 0 0 0 0 0 0 0 0 0 0 0 0 0 0 0 0 0 0 0 0 0 0 0 38 0 0 0 0 0 0 0 0 0 0 0 0 0 0 0 28 0 0 0 0 0 0 0 0 0 21 0 0 0 0 38 0 0 0 0 0 0 0 0 0 0 0 0 27 0 0 0 0 0 0 0 0 32 0 0 0 0 0 0 0 0 0 0 25 0 0 0 0 20 0 
		27 0 0 0 0 0 0 0 0 0 23 0 0 0 22 0 0 0 0 0 0 0 0 30 0 21 40 0 0 0 0 0 0 0 0 0 0 0 40 0 0 0 0 0 0 34 26 29 27 0 0 0 0 0 0 40 0 0 0 0 38 0 0 0 0 0 0 37 0 0 0 0 0 0 0 0 0 0 0 0 23 0 0 0 0 0 0 0 0 0 0 0 21 0 0 0 0 
		28 0 0 0 0 21 0 0 0 0 0 0 0 0 0 0 0 0 0 22 0 0 0 0 0 0 32 0 0 0 0 0 0 0 0 26 31 33 0 0 0 0 35 0 0 29 28 0 0 0 34 0 0 35 0 0 0 0 0 0 20 0 0 24 0 0 0 0 0 0 0 0 0 0 39 21 0 0 0 0 0 0 0 0 0 0 0 0 0 0 0 0 0 36 0 0 0 
		29 0 0 0 0 0 0 0 0 0 0 28 0 0 30 0 0 0 0 27 0 0 0 0 0 35 0 0 0 0 0 0 0 0 0 0 24 0 0 0 0 34 0 0 0 0 0 0 0 0 0 0 0 0 0 0 0 0 0 0 0 0 0 0 0 0 0 0 0 0 0 38 0 0 0 0 0 0 0 0 0 29 0 0 0 0 0 20 0 0 0 0 0 0 0 0 20 
		30 0 0 0 0 23 0 0 0 39 0 0 28 0 0 0 0 0 0 0 0 0 0 0 29 0 0 0 0 0 0 0 0 0 0 0 0 0 0 23 0 0 0 0 0 0 33 0 0 32 0 0 0 0 0 0 0 23 0 0 0 0 30 0 0 0 0 0 0 0 0 0 0 0 0 0 0 0 0 0 0 0 0 0 20 0 0 0 0 0 0 0 0 0 0 0 0 
		31 0 0 0 0 0 20 0 21 0 0 0 0 0 0 0 0 0 0 0 25 35 0 0 0 0 0 0 0 0 0 0 0 0 0 0 0 0 0 0 0 0 0 0 0 0 0 0 0 0 0 0 0 0 0 0 34 0 0 34 0 0 0 0 0 0 0 0 0 0 0 0 0 0 0 0 0 0 0 24 0 0 0 0 0 0 0 0 37 0 0 0 0 0 0 0 0 
		32 0 0 0 0 0 0 0 0 0 0 0 0 0 0 0 0 0 0 0 0 0 0 0 0 0 0 0 0 0 0 0 0 0 0 0 0 0 0 0 0 0 0 0 0 0 0 0 28 0 0 0 0 0 0 0 0 0 0 29 21 0 0 0 0 0 0 0 0 0 28 39 0 0 0 0 0 0 0 0 0 0 0 0 0 0 0 0 0 0 0 0 0 0 0 0 0 
		33 0 0 0 0 0 0 0 39 20 0 0 0 0 0 0 0 22 0 0 0 0 0 0 0 0 21 0 0 0 0 0 0 0 0 0 0 0 0 37 0 0 0 0 0 0 0 31 0 0 0 0 20 0 0 0 0 0 0 26 0 0 0 0 0 0 0 0 0 0 0 0 0 0 0 0 32 0 0 34 0 0 0 0 0 0 0 0 0 0 32 0 0 0 0 37 0 
		34 0 0 0 0 31 24 0 0 0 31 0 31 0 0 0 0 0 0 0 0 0 0 0 0 0 0 0 0 26 0 0 0 0 0 0 0 0 0 0 0 0 0 0 0 0 0 0 0 0 0 0 0 32 0 0 0 0 0 0 0 0 0 0 0 27 0 0 0 0 0 0 0 0 27 0 0 29 30 0 0 0 0 0 0 0 39 0 0 0 0 0 0 0 0 0 0 
		35 0 0 27 0 0 0 0 0 0 0 0 0 0 32 0 0 0 0 0 37 39 35 0 24 0 0 0 0 31 24 0 0 0 0 0 0 0 0 0 0 0 0 0 0 0 0 0 0 0 0 0 0 0 0 0 0 0 23 0 0 0 0 0 0 0 0 0 0 0 0 0 0 0 0 0 0 0 0 0 0 0 0 0 0 0 0 0 0 0 0 0 0 0 0 0 0 
		36 0 24 0 0 0 0 0 0 0 0 0 0 0 0 0 0 39 0 21 25 0 0 37 0 0 0 0 0 33 0 0 0 0 0 0 0 0 0 0 0 0 39 0 0 20 0 24 0 0 0 0 0 0 0 0 0 0 0 0 20 0 39 0 0 31 0 0 0 0 0 0 29 0 0 0 0 0 0 0 0 0 0 0 0 0 0 0 0 0 0 0 0 0 31 0 0 
		37 0 38 0 0 0 0 0 0 0 38 0 38 0 0 25 0 0 0 0 0 0 0 0 0 0 0 0 40 0 0 0 0 0 0 0 0 0 0 0 0 0 0 0 0 0 34 0 0 0 0 0 0 0 0 0 0 0 0 0 0 0 0 0 0 0 0 0 0 0 0 0 0 0 35 0 0 0 0 0 0 0 0 20 0 0 35 0 0 25 0 0 39 0 0 0 0 
		38 0 0 0 0 0 0 0 0 0 0 0 0 0 0 0 0 0 0 0 0 0 38 0 0 0 0 0 0 0 0 23 0 0 37 0 0 0 0 0 0 0 0 0 0 0 0 0 0 0 0 0 0 0 0 0 0 0 0 0 0 0 0 0 0 0 0 0 0 0 0 0 0 0 30 0 0 0 0 0 0 0 0 0 0 0 0 0 0 0 0 0 0 0 0 0 0 
		39 0 0 0 0 0 0 0 27 0 0 0 0 0 0 0 0 0 0 0 0 0 0 0 0 0 0 0 0 0 0 0 0 0 0 0 0 0 0 0 0 0 0 0 0 0 0 0 32 0 0 0 0 0 0 24 30 0 0 0 0 0 0 0 0 0 35 0 0 0 0 0 0 0 0 0 0 0 0 0 0 0 35 0 0 0 0 0 0 0 0 0 0 0 30 31 0 
		40 0 0 0 0 0 0 0 0 0 0 0 0 0 0 0 0 0 0 0 0 34 0 0 20 29 0 0 0 0 34 0 0 0 0 0 0 0 0 0 0 0 0 40 0 0 0 0 0 0 0 0 0 0 0 0 0 0 29 0 0 0 0 0 0 0 0 0 0 0 0 0 0 0 0 0 0 0 0 0 0 36 0 0 0 0 21 0 0 0 0 0 0 0 0 0 0 
		41 0 0 38 0 0 0 0 26 0 0 0 0 0 36 0 0 28 34 0 0 0 0 0 0 0 0 28 0 35 0 0 0 0 0 0 0 39 0 0 0 0 0 27 0 0 23 0 0 0 0 33 0 0 32 0 27 0 0 34 0 0 0 37 0 0 0 0 0 0 0 0 27 0 0 0 0 0 0 26 0 0 0 0 0 0 0 0 26 0 0 0 0 0 0 0 0 
		42 20 0 0 0 0 0 34 20 0 0 0 0 0 0 0 0 0 0 0 0 0 0 0 30 0 0 0 0 0 0 0 0 0 0 0 0 0 0 0 0 40 27 0 0 0 23 0 0 0 0 0 0 0 0 0 0 0 0 25 0 0 0 31 0 0 0 0 0 0 0 0 0 0 0 38 0 0 0 0 0 0 0 34 0 0 0 0 0 0 37 0 33 40 0 0 0 
		43 0 0 0 0 0 29 0 0 0 0 0 0 0 0 0 0 0 0 0 0 0 0 0 0 0 0 0 0 0 0 0 0 0 0 0 0 0 0 0 0 0 0 0 0 0 30 0 0 0 0 0 0 0 0 0 0 0 0 0 0 0 0 0 0 0 0 0 0 0 0 0 0 0 0 22 0 0 0 0 0 0 0 0 0 0 33 0 0 0 0 0 0 0 32 0 0 
		44 0 0 0 0 0 0 0 0 0 35 0 31 0 0 0 0 0 0 0 0 0 0 0 0 0 0 0 34 29 0 0 0 0 0 0 0 20 0 0 0 0 0 0 0 0 0 0 31 0 0 0 0 0 24 0 0 0 0 0 0 33 0 0 0 40 0 0 0 0 0 0 0 0 0 0 27 0 0 0 0 0 0 0 0 0 0 0 0 0 0 0 0 0 0 0 0 
		45 0 0 0 0 0 0 0 0 34 20 27 0 0 0 0 0 30 0 0 0 0 0 0 0 0 0 0 26 28 0 33 0 0 0 0 0 0 34 0 0 0 23 23 30 0 0 0 0 0 0 0 0 0 0 23 0 0 0 0 0 0 0 0 0 0 0 0 0 0 0 0 0 0 37 27 0 0 0 0 0 0 0 0 0 0 0 38 40 0 0 22 0 0 0 31 0 
		46 0 0 0 0 0 0 0 30 0 40 0 0 0 0 0 0 0 0 0 0 0 0 0 0 0 0 0 29 0 0 0 0 0 31 0 0 24 0 0 0 0 0 0 0 0 0 0 0 0 0 36 0 0 0 0 25 0 0 0 37 0 25 0 0 21 0 0 0 0 0 0 0 0 0 0 0 0 0 0 0 0 0 30 0 0 0 0 0 0 0 0 0 0 0 0 0 
		47 0 0 0 0 0 0 0 31 27 0 0 0 0 24 0 0 0 26 0 0 0 0 0 0 0 26 0 27 0 0 0 0 28 0 0 0 0 0 0 32 0 0 0 0 31 0 0 0 0 0 36 0 0 35 0 0 0 0 0 0 0 0 0 0 0 0 0 0 0 0 0 0 0 0 0 0 0 0 0 0 0 0 0 0 0 0 0 0 0 0 0 0 0 0 0 0 
		48 0 0 0 0 27 0 0 0 29 0 0 0 0 0 0 0 0 0 0 0 0 0 31 27 0 0 0 0 0 0 32 0 0 0 0 0 0 0 0 0 0 0 0 0 0 0 0 0 0 0 0 0 0 0 24 0 39 0 0 0 0 0 0 0 40 0 0 0 0 0 0 0 20 0 0 0 0 0 0 0 0 0 0 0 0 0 0 0 0 0 40 0 0 0 0 0 
		49 0 0 0 0 0 0 0 0 31 0 0 0 26 0 0 0 0 0 0 0 0 0 0 0 0 0 0 0 34 0 0 0 0 0 0 0 0 0 0 0 0 0 0 0 0 0 0 0 0 0 0 0 38 0 0 0 0 0 27 0 0 0 0 0 0 0 34 0 0 0 0 0 0 0 0 0 0 0 0 0 40 0 0 0 0 0 0 0 0 0 39 0 0 0 0 0 
		50 0 0 0 0 0 0 0 0 0 0 0 0 0 34 0 27 0 0 0 0 0 0 36 0 0 0 0 0 0 0 0 0 0 0 0 0 0 0 0 0 0 33 0 0 0 0 36 36 0 0 0 0 0 0 0 0 0 0 0 0 28 0 0 0 0 0 0 0 0 0 0 0 0 0 0 0 0 0 0 0 33 0 0 0 0 39 0 0 0 0 0 0 0 28 0 0 
		51 0 0 0 0 0 0 0 27 0 0 0 0 0 25 0 0 0 0 0 0 0 39 0 0 0 0 21 0 0 0 0 0 0 20 0 0 0 0 0 0 0 0 0 0 0 0 0 0 0 0 0 0 0 0 0 0 0 0 36 0 0 0 0 0 0 0 0 0 0 0 0 0 0 0 0 0 35 0 0 0 0 0 0 0 0 0 0 0 0 0 0 22 0 0 39 0 
		52 0 0 0 0 0 0 0 0 0 0 0 0 0 0 0 0 0 0 0 28 0 0 0 0 0 0 0 0 35 0 0 0 0 0 32 0 0 0 0 0 0 0 0 0 0 0 0 0 0 38 0 0 0 0 0 0 0 0 0 0 0 0 0 0 0 0 0 0 0 0 0 0 0 0 0 0 31 0 0 0 0 0 0 0 0 0 0 0 0 0 0 0 0 0 0 0 
		53 0 0 0 0 0 0 0 0 33 0 0 0 0 0 0 0 0 0 0 0 0 0 0 33 0 0 0 0 0 0 0 0 0 0 0 0 0 0 0 0 0 32 0 0 24 0 0 35 0 0 0 0 0 0 0 33 0 0 0 0 0 0 0 0 0 26 0 0 0 0 0 0 0 0 0 0 0 0 0 0 0 0 0 0 0 0 0 0 20 20 0 0 0 0 0 0 
		54 0 0 0 0 0 0 0 0 0 0 0 0 0 0 0 0 0 0 0 0 37 0 0 0 0 0 0 40 0 0 0 0 0 0 0 0 0 0 0 24 0 0 0 0 0 23 0 0 24 0 0 0 0 0 0 0 0 0 0 0 0 37 0 0 0 0 0 0 0 0 0 0 0 0 0 0 0 0 0 0 0 0 0 0 0 0 0 0 0 0 0 40 0 0 0 0 
		55 0 0 0 0 0 0 0 0 0 0 0 0 0 0 24 0 0 0 0 0 0 0 0 0 0 0 0 0 0 0 0 34 0 0 0 0 0 0 0 30 0 27 0 0 0 0 25 0 0 0 0 0 0 33 0 0 38 0 0 30 0 0 0 0 0 0 0 0 0 0 0 0 0 0 0 0 0 0 0 0 0 0 0 0 0 0 0 0 0 0 0 0 0 0 0 0 
		56 0 0 0 0 0 40 26 0 0 0 0 0 0 0 0 0 36 0 0 0 0 26 0 0 0 31 38 0 0 0 23 0 0 0 0 0 0 0 0 0 0 0 0 0 0 0 0 0 39 0 0 0 0 0 0 38 0 0 35 0 0 0 0 0 0 0 0 21 25 0 0 0 0 0 0 0 0 0 0 33 33 0 26 0 0 0 0 0 0 0 0 23 0 0 30 0 
		57 0 0 0 0 0 0 0 0 0 0 0 0 0 0 0 0 0 0 0 0 0 0 0 0 0 0 0 0 0 0 0 0 0 0 0 23 0 0 0 0 29 0 0 0 0 0 0 0 0 0 0 0 0 0 0 0 0 0 0 0 0 0 24 0 0 0 0 0 0 0 0 0 0 33 0 0 0 0 29 0 23 0 0 0 0 0 0 0 0 0 0 0 0 33 0 0 
		58 0 0 0 0 28 0 36 0 0 0 0 0 0 0 0 0 35 0 0 38 0 0 0 0 0 0 0 0 0 0 0 34 29 26 0 0 0 0 0 0 0 34 25 0 0 0 0 0 0 27 0 36 0 0 0 0 35 0 0 0 0 0 0 0 0 0 0 0 0 0 0 0 0 0 0 29 0 0 0 0 0 0 0 0 0 0 0 0 0 39 0 0 0 0 37 0 
		59 0 39 0 0 0 0 0 0 0 0 0 0 26 0 0 0 0 0 0 0 0 0 28 31 0 0 0 38 20 0 0 0 21 0 0 0 20 0 0 0 0 0 0 0 0 0 37 0 0 0 0 0 0 0 0 30 0 0 0 0 0 0 0 0 23 33 0 0 0 0 0 28 0 0 0 0 0 0 0 0 0 0 0 0 0 36 0 0 0 0 37 0 0 0 0 0 
		60 0 0 0 25 0 0 0 0 0 0 0 0 0 35 0 26 0 0 0 0 0 0 0 0 0 0 0 0 0 0 0 0 0 0 0 0 0 0 0 0 0 0 0 0 33 0 0 0 0 0 28 0 0 0 0 0 0 0 0 0 0 0 0 0 0 0 0 36 0 0 0 0 0 0 0 37 0 0 0 0 0 0 0 0 0 0 0 0 0 35 0 0 0 0 0 0 
		61 0 0 0 0 0 0 0 0 0 0 0 0 0 0 0 0 0 0 0 0 0 0 0 0 0 0 0 0 0 0 30 0 0 0 0 0 39 0 0 0 0 0 0 0 0 0 25 0 0 0 0 0 0 0 37 0 0 0 0 0 0 0 0 0 0 0 0 0 0 0 0 0 0 0 0 0 0 0 0 0 0 0 0 21 0 0 0 0 0 0 0 0 0 0 34 0 
		62 0 0 0 0 0 24 0 0 0 0 0 0 0 28 0 0 36 0 0 0 0 0 0 0 0 0 0 0 24 0 0 0 0 0 0 0 0 0 0 0 0 37 31 0 0 0 0 0 0 0 0 0 0 0 0 0 0 24 0 0 0 0 0 0 39 34 0 0 0 0 37 0 0 0 32 0 0 0 0 30 0 0 0 0 0 20 38 0 0 0 0 0 0 0 0 0 
		63 0 0 0 0 0 28 20 0 0 0 0 0 0 0 0 0 0 0 0 0 0 0 0 20 0 0 0 0 0 0 0 0 0 0 0 0 0 0 0 0 0 0 0 0 0 0 0 0 0 0 0 0 0 0 0 0 0 0 0 0 0 0 0 0 0 0 0 0 0 0 0 0 0 0 0 0 0 0 0 0 0 0 0 0 0 0 0 0 0 0 35 0 0 0 0 0 
		64 0 0 0 0 0 0 0 0 0 0 22 0 0 0 0 0 0 0 0 0 0 0 0 0 0 0 0 0 0 0 0 0 0 0 27 0 31 0 0 0 0 0 0 0 40 0 21 0 40 0 0 0 0 0 0 0 0 0 0 23 0 0 39 0 0 0 0 0 25 0 0 0 0 24 0 0 0 0 0 0 0 0 0 24 0 0 0 0 0 0 0 0 0 0 29 0 
		65 0 0 0 0 0 0 0 0 0 0 0 0 0 40 0 0 0 0 21 0 0 0 0 0 39 0 0 0 0 0 0 0 0 0 0 0 0 0 0 35 0 0 0 0 0 0 0 0 0 0 0 0 0 26 0 0 0 0 0 33 0 0 34 0 0 0 0 0 0 0 0 27 0 0 0 0 0 0 0 0 0 28 0 0 0 0 0 0 0 24 0 0 25 0 0 0 
		66 0 0 0 0 0 0 0 0 0 0 0 0 0 0 0 0 20 0 0 0 0 0 0 0 0 0 0 37 0 0 0 0 0 0 0 0 0 0 0 0 0 0 0 0 0 0 0 0 0 34 0 0 0 0 0 0 0 0 0 0 0 0 0 0 0 0 0 0 0 0 0 0 0 0 26 0 0 0 0 0 0 0 0 0 0 0 0 0 0 0 0 0 0 0 0 0 
		67 0 0 0 0 0 0 0 0 0 0 0 0 0 0 0 0 0 24 0 0 25 0 0 0 0 35 0 0 0 0 0 0 0 0 0 0 0 0 0 0 0 0 0 0 0 0 0 0 0 0 0 0 0 0 0 0 21 0 0 0 36 0 0 0 0 0 0 0 0 0 0 0 0 0 0 0 0 0 0 0 0 0 27 0 40 0 0 0 0 0 0 0 0 0 0 0 
		68 0 0 0 0 0 0 0 0 0 0 0 0 0 0 0 0 0 0 0 0 0 0 0 0 0 0 0 0 0 0 0 0 0 0 0 0 0 0 0 0 0 0 0 0 0 0 0 0 0 0 0 0 0 0 0 0 25 0 0 0 0 0 0 0 25 0 0 0 0 0 0 0 0 0 0 0 0 0 0 0 0 0 0 0 0 0 0 0 24 0 0 0 0 0 0 0 
		69 0 0 0 0 0 0 0 0 0 0 0 0 0 0 0 0 0 0 0 0 0 0 0 0 0 0 27 0 0 0 0 0 28 0 0 0 0 0 0 0 0 0 0 0 0 0 0 0 0 0 0 0 0 0 0 0 0 0 0 0 0 0 0 0 0 0 0 0 0 0 0 0 0 0 0 0 0 0 0 0 0 31 0 0 0 0 0 0 0 0 0 0 32 0 0 0 
		70 0 0 0 0 0 0 0 0 0 0 0 0 0 0 0 0 36 0 0 0 0 0 0 0 0 0 0 0 0 38 0 0 39 0 0 0 0 0 0 0 0 0 0 0 0 0 0 0 0 0 0 0 0 0 0 0 0 0 0 0 0 0 37 0 0 0 0 0 0 0 0 0 0 0 0 0 0 0 0 0 0 0 0 0 0 23 0 0 0 0 0 0 0 0 0 0 
		71 26 0 0 0 0 0 0 0 0 36 0 0 0 0 0 0 0 0 0 0 0 0 0 0 28 0 0 0 0 0 0 0 0 0 0 0 29 0 0 0 0 27 0 0 0 0 0 0 0 0 0 0 0 0 0 0 0 0 0 28 0 0 0 0 0 27 0 0 0 0 0 0 0 0 0 0 0 26 0 32 29 0 0 0 0 0 31 0 0 0 0 0 0 0 0 0 
		72 0 0 0 0 0 0 0 0 0 0 34 0 36 0 0 0 0 0 0 0 0 0 0 29 0 0 0 0 0 0 0 0 0 0 0 0 0 0 0 0 0 0 0 0 0 0 0 0 20 0 0 0 0 0 0 0 0 0 0 0 0 0 0 0 0 0 0 0 0 0 0 0 0 0 0 0 0 0 0 0 0 0 0 0 0 0 0 0 21 0 0 0 0 0 0 0 
		73 0 0 0 0 0 0 0 0 0 25 0 0 0 0 0 0 0 0 0 0 0 0 29 0 0 0 0 0 39 0 0 0 0 0 27 0 0 35 30 0 0 0 0 0 0 37 0 0 0 0 0 0 0 0 0 0 0 33 0 0 0 0 0 0 24 0 0 0 0 0 0 0 0 0 0 0 33 0 0 0 0 0 0 0 0 0 0 0 0 0 0 0 0 0 0 0 
		74 0 0 0 0 0 0 30 0 0 0 0 36 0 0 0 30 0 0 0 0 0 0 0 0 0 0 0 0 21 0 0 0 0 0 0 0 0 0 0 0 0 0 38 22 0 27 0 0 0 0 0 0 0 0 0 0 0 0 0 0 0 0 32 0 0 0 26 0 0 0 0 0 0 0 0 29 33 33 0 0 0 0 20 0 0 0 34 0 0 0 0 0 0 0 34 0 
		75 0 0 0 0 0 0 0 0 0 39 0 35 0 29 0 0 0 0 33 0 0 0 0 0 0 0 0 0 0 0 0 0 0 32 0 0 0 0 0 0 0 0 0 0 27 0 0 0 0 0 0 0 0 0 0 0 0 0 29 0 37 0 0 0 0 0 0 0 0 0 0 0 0 0 29 0 0 0 0 40 0 0 0 0 0 0 0 0 0 0 0 0 0 0 0 0 
		76 0 0 0 0 0 0 0 0 0 0 0 0 0 0 0 0 0 0 0 0 0 0 0 0 0 0 0 0 0 0 0 0 0 0 29 0 0 0 0 0 0 0 0 0 0 0 0 0 0 0 0 35 31 0 0 0 0 0 0 0 0 0 0 0 0 0 0 0 0 0 0 0 0 33 33 0 0 0 0 0 0 0 0 0 0 0 0 0 0 0 0 0 0 0 0 0 
		77 0 0 0 0 0 0 0 0 0 0 0 0 0 0 0 0 0 0 0 0 0 0 20 0 0 0 0 0 0 0 0 0 0 0 30 0 0 0 0 0 0 0 0 0 0 0 0 0 0 0 0 0 0 0 0 0 0 0 0 0 0 0 0 0 0 0 0 0 0 0 0 26 0 0 33 0 0 0 0 0 0 0 0 0 0 30 0 0 0 0 27 0 0 0 38 0 
		78 0 0 39 0 0 39 25 26 0 0 0 0 0 0 0 0 37 30 0 0 0 0 0 0 0 0 32 0 0 0 0 24 0 34 0 0 0 0 0 0 0 26 0 0 0 0 0 0 0 0 0 0 0 0 0 0 0 29 0 0 0 0 0 0 0 0 0 0 0 0 0 0 0 0 0 0 0 0 0 0 0 0 0 0 0 0 0 0 0 0 0 0 0 0 0 0 
		79 0 0 39 0 29 40 0 0 0 30 0 0 0 0 0 0 0 0 0 0 0 0 0 0 0 0 0 23 0 0 0 0 0 0 0 0 0 0 0 0 0 0 0 0 0 0 0 0 0 0 0 0 0 0 0 0 33 0 0 0 0 0 30 0 0 0 0 0 0 0 0 32 0 0 0 40 0 0 0 0 0 0 0 0 0 0 0 0 0 0 0 30 0 0 37 0 
		80 0 0 0 0 0 0 0 0 38 0 0 0 0 25 0 0 0 0 0 0 0 0 35 0 0 0 0 0 0 29 0 0 0 0 0 0 0 0 0 0 36 0 0 0 0 0 0 0 0 40 33 0 0 0 0 0 33 23 0 0 0 0 0 0 0 0 0 0 0 0 0 29 0 0 0 0 0 0 0 0 0 0 0 0 0 0 0 0 28 0 0 0 22 0 0 0 
		81 0 0 0 0 0 0 0 0 0 0 0 0 0 40 30 0 0 0 0 0 0 0 0 0 0 0 0 0 0 0 0 0 0 0 0 0 0 0 0 35 0 0 0 0 0 0 0 0 0 0 0 0 0 0 0 0 0 0 0 0 0 0 0 0 0 28 0 0 0 31 0 0 0 0 0 0 0 0 0 0 0 0 0 0 0 0 0 0 0 0 0 0 0 0 0 0 
		82 0 0 0 0 0 0 0 0 0 0 35 0 0 0 0 0 0 0 0 0 0 0 0 0 0 0 0 0 0 0 0 0 0 0 0 0 0 20 0 0 0 0 34 0 0 0 30 0 0 0 0 0 0 0 0 0 26 0 0 0 0 0 0 0 0 0 0 27 0 0 0 0 0 0 20 0 0 0 0 0 0 0 0 0 0 0 0 0 0 0 0 0 0 30 0 0 
		83 0 27 0 0 0 33 0 0 0 0 0 0 0 0 0 0 0 36 0 0 0 0 0 0 0 0 0 0 0 0 20 0 0 0 0 0 0 0 0 0 0 0 0 0 0 0 0 0 0 0 0 0 0 0 0 0 0 0 0 0 0 21 0 0 24 0 0 0 0 0 0 0 0 0 0 0 0 0 0 0 0 0 0 0 0 0 0 38 0 0 24 0 0 0 0 0 
		84 0 0 0 0 0 0 0 0 0 0 0 0 0 0 0 0 0 0 0 0 0 0 0 0 33 0 0 0 0 0 0 0 0 0 0 0 0 0 0 0 0 0 0 0 0 0 0 0 0 0 0 0 0 0 0 0 0 0 0 0 0 0 0 0 0 0 0 40 0 0 0 0 0 0 0 0 0 0 0 0 0 0 0 0 0 0 0 0 0 20 0 0 0 0 0 0 
		85 0 0 0 0 0 0 0 0 37 0 0 0 24 0 0 0 0 0 0 0 0 0 0 0 0 0 0 0 0 0 0 0 0 0 39 0 0 35 0 0 21 0 0 33 0 0 0 0 0 0 39 0 0 0 0 0 0 0 0 36 0 0 20 0 0 0 0 0 0 0 23 0 0 0 0 0 0 30 0 0 0 0 0 0 0 0 0 22 0 0 0 0 0 30 0 0 
		86 0 0 0 0 0 0 0 0 0 0 30 25 0 0 0 0 0 0 0 0 0 0 0 34 0 0 0 0 0 20 0 0 0 0 0 0 0 0 0 0 0 0 0 0 0 38 0 0 0 0 0 0 0 0 0 0 0 0 0 0 0 0 38 0 0 0 0 0 0 0 0 31 0 0 34 0 0 0 0 0 0 0 0 0 0 0 0 0 0 0 0 0 0 0 0 0 
		87 0 0 0 0 0 33 0 0 32 0 0 0 0 0 0 0 0 26 0 0 0 0 0 0 0 0 0 0 0 0 0 37 0 0 0 0 0 0 0 0 0 26 0 0 0 40 0 0 0 0 0 0 0 0 0 0 0 0 0 0 0 0 0 0 0 0 0 0 0 0 0 0 0 0 0 0 0 0 0 0 0 0 0 38 0 22 0 0 0 0 0 0 0 0 0 0 
		88 0 37 0 0 0 0 0 0 0 0 0 0 0 0 0 0 0 0 0 0 0 0 0 0 0 0 0 0 0 0 0 0 0 0 0 0 0 25 0 0 0 0 0 0 0 0 0 0 0 0 0 0 0 20 0 0 0 0 0 0 0 0 0 0 0 0 0 0 24 0 0 0 21 0 0 0 0 0 0 0 28 0 0 0 0 0 0 0 0 0 23 0 0 0 0 27 
		89 0 0 35 0 0 0 0 0 30 0 0 0 0 38 0 0 0 0 0 0 0 0 0 0 0 0 25 0 0 0 0 0 0 32 0 0 0 0 0 0 0 0 37 0 0 0 0 0 0 0 0 0 0 20 0 0 0 0 39 0 35 0 0 0 0 24 0 0 0 0 0 0 0 0 0 0 0 0 0 0 0 0 0 0 20 0 0 0 0 0 0 0 0 0 0 0 
		90 0 0 0 0 24 0 0 0 0 0 0 0 0 0 0 0 0 0 0 0 0 0 0 0 0 0 0 0 0 0 0 0 0 0 0 0 0 0 0 0 0 0 0 0 0 22 0 0 40 39 0 0 0 0 0 0 0 0 0 37 0 0 0 35 0 0 0 0 0 0 0 0 0 0 0 0 0 27 0 0 0 0 0 24 0 0 0 0 23 0 0 0 0 0 0 0 
		91 0 0 0 0 0 0 0 0 0 0 0 0 38 0 0 0 0 0 0 0 0 0 0 0 0 0 0 21 0 0 0 0 0 0 0 0 0 39 0 0 0 0 33 0 0 0 0 0 0 0 0 22 0 0 40 0 23 0 0 0 0 0 0 0 0 0 0 0 0 0 0 0 0 0 0 0 0 0 0 30 0 0 0 0 0 0 0 0 0 0 0 0 0 0 0 0 
		92 0 0 0 32 0 0 0 24 0 0 0 0 0 0 0 31 0 0 0 0 0 0 0 0 0 0 0 0 36 0 0 0 0 0 0 0 0 0 0 0 0 0 40 0 0 0 0 0 0 0 0 0 0 0 0 0 0 0 0 0 0 0 0 0 0 25 0 0 0 32 0 0 0 0 0 0 0 0 0 0 22 0 0 0 0 0 0 0 0 0 0 0 0 0 0 0 
		93 0 25 0 0 0 0 0 0 0 20 0 0 0 0 0 0 0 0 0 0 0 0 0 0 0 0 0 0 0 0 0 0 0 0 0 0 31 0 0 30 0 0 0 32 0 0 0 0 0 0 28 0 0 0 0 0 0 33 0 0 0 0 0 0 0 0 0 0 0 0 0 0 0 0 0 0 0 0 0 0 0 0 30 0 0 30 0 0 0 0 0 0 0 0 0 0 
		94 0 0 0 0 0 0 31 0 0 0 0 0 0 40 0 0 0 25 0 0 0 0 0 0 0 34 20 0 0 0 0 0 0 37 0 0 0 0 0 31 0 0 0 0 0 31 0 0 0 0 0 39 0 0 0 0 30 0 37 0 0 34 0 0 29 0 0 0 0 0 0 0 0 0 34 0 0 38 0 37 0 0 0 0 0 0 0 0 0 0 0 0 0 0 0 0 
		95 0 0 0 0 0 0 0 0 0 0 21 0 0 32 0 0 0 0 0 0 0 0 0 0 0 0 0 0 0 20 0 0 0 0 0 0 0 0 0 0 0 0 0 0 0 0 0 0 0 0 0 0 0 0 0 0 0 0 0 0 0 0 0 0 0 0 0 0 0 0 0 0 0 0 0 0 0 0 0 0 0 0 0 0 0 0 0 0 27 0 0 0 0 0 0 0 
;
